NAME: Random ATSP Instance
TYPE: ATSP
DIMENSION: 10
EDGE_WEIGHT_TYPE: EXPLICIT
EDGE_WEIGHT_FORMAT: FULL_MATRIX
EDGE_WEIGHT_SECTION
9999 15 1 13 2 3 9 9 3 8
19 9999 14 4 7 2 19 2 1 2
2 3 9999 11 5 11 20 2 6 3
15 3 16 9999 1 4 13 2 9 18
20 3 4 17 9999 19 3 17 16 17
4 2 6 17 9 9999 6 4 9 5
5 6 13 11 13 8 9999 18 7 12
6 16 4 5 12 8 14 9999 2 15
3 1 7 3 2 9 8 6 9999 6
14 13 20 12 10 20 8 16 2 9999
EOF
